NAME          
ROWS
 N  OBJ
 L  c1
 L  c2
COLUMNS
    MARKER    'MARKER'                 'INTORG'
    x[1]      c1        225
    x[1]      c2        610
    x[1]      OBJ       -378
    x[2]      c1        254
    x[2]      c2        58
    x[2]      OBJ       -478
    x[3]      c1        184
    x[3]      c2        179
    x[3]      OBJ       -812
    x[4]      c1        189
    x[4]      c2        203
    x[4]      OBJ       -880
    x[5]      c1        946
    x[5]      c2        753
    x[5]      OBJ       -318
    x[6]      c1        66
    x[6]      c2        452
    x[6]      OBJ       -199
    x[7]      c1        274
    x[7]      c2        270
    x[7]      OBJ       -842
    x[8]      c1        995
    x[8]      c2        679
    x[8]      OBJ       -519
    x[9]      c1        859
    x[9]      c2        603
    x[9]      OBJ       -267
    x[10]     c1        46
    x[10]     c2        142
    x[10]     OBJ       -606
    x[11]     c1        319
    x[11]     c2        64
    x[11]     OBJ       -415
    x[12]     c1        47
    x[12]     c2        203
    x[12]     OBJ       -797
    x[13]     c1        643
    x[13]     c2        558
    x[13]     OBJ       -116
    x[14]     c1        710
    x[14]     c2        399
    x[14]     OBJ       -932
    x[15]     c1        342
    x[15]     c2        477
    x[15]     OBJ       -86
    x[16]     c1        419
    x[16]     c2        219
    x[16]     OBJ       -717
    x[17]     c1        837
    x[17]     c2        985
    x[17]     OBJ       -93
    x[18]     c1        864
    x[18]     c2        313
    x[18]     OBJ       -296
    x[19]     c1        196
    x[19]     c2        986
    x[19]     OBJ       -776
    x[20]     c1        483
    x[20]     c2        478
    x[20]     OBJ       -78
    x[21]     c1        397
    x[21]     c2        587
    x[21]     OBJ       -960
    x[22]     c1        707
    x[22]     c2        493
    x[22]     OBJ       -152
    x[23]     c1        314
    x[23]     c2        331
    x[23]     OBJ       -363
    x[24]     c1        90
    x[24]     c2        121
    x[24]     OBJ       -486
    x[25]     c1        195
    x[25]     c2        980
    x[25]     OBJ       -307
RHS
    rhs       c1        5300
    rhs       c2        5572
RANGES
BOUNDS
 BV bounds    x[1]
 BV bounds    x[2]
 BV bounds    x[3]
 BV bounds    x[4]
 BV bounds    x[5]
 BV bounds    x[6]
 BV bounds    x[7]
 BV bounds    x[8]
 BV bounds    x[9]
 BV bounds    x[10]
 BV bounds    x[11]
 BV bounds    x[12]
 BV bounds    x[13]
 BV bounds    x[14]
 BV bounds    x[15]
 BV bounds    x[16]
 BV bounds    x[17]
 BV bounds    x[18]
 BV bounds    x[19]
 BV bounds    x[20]
 BV bounds    x[21]
 BV bounds    x[22]
 BV bounds    x[23]
 BV bounds    x[24]
 BV bounds    x[25]
ENDATA
